interface ihello
{
  in void hello ();
  behavior {on hello:{}}
}

component hello
{
  provides ihello p;
  behavior {}
}

component instance_port_not_bound
{
  provides ihello p;
  system
  {
    hello h;
    hello i;
    p <=> h.p;
    p <=> i.p;
  }
}
